(set-info :smt-lib-version 2.6)
(set-logic QF_LIA)
(set-info :category "industrial")
(set-info :status sat)
(declare-fun x0 () Int)
(declare-fun x1 () Int)
(declare-fun x10 () Int)
(declare-fun x11 () Int)
(declare-fun x12 () Int)
(declare-fun x13 () Int)
(declare-fun x14 () Int)
(declare-fun x15 () Int)
(declare-fun x16 () Int)
(declare-fun x17 () Int)
(declare-fun x18 () Int)
(declare-fun x19 () Int)
(declare-fun x2 () Int)
(declare-fun x20 () Int)
(declare-fun x21 () Int)
(declare-fun x22 () Int)
(declare-fun x23 () Int)
(declare-fun x24 () Int)
(declare-fun x25 () Int)
(declare-fun x26 () Int)
(declare-fun x27 () Int)
(declare-fun x28 () Int)
(declare-fun x29 () Int)
(declare-fun x3 () Int)
(declare-fun x30 () Int)
(declare-fun x31 () Int)
(declare-fun x32 () Int)
(declare-fun x33 () Int)
(declare-fun x34 () Int)
(declare-fun x35 () Int)
(declare-fun x36 () Int)
(declare-fun x37 () Int)
(declare-fun x38 () Int)
(declare-fun x39 () Int)
(declare-fun x4 () Int)
(declare-fun x5 () Int)
(declare-fun x6 () Int)
(declare-fun x7 () Int)
(declare-fun x8 () Int)
(declare-fun x9 () Int)
(assert (let ((?v_0 (* 0 x0)) (?v_22 (* 0 x1)) (?v_5 (* 1 x10)) (?v_7 (* 0 x13)) (?v_23 (* 1 x11)) (?v_8 (* 0 x15)) (?v_26 (* 0 x20)) (?v_3 (* 0 x23)) (?v_15 (* 0 x24)) (?v_17 (* 0 x26)) (?v_18 (* 0 x32)) (?v_31 (* 0 x36)) (?v_93 (* 0 x7)) (?v_56 (* 1 x21)) (?v_11 (* 1 x29)) (?v_51 (* 1 x37)) (?v_66 (* 1 x39)) (?v_67 (* 1 x8)) (?v_21 (* 2 x28)) (?v_87 (* 0 x11)) (?v_6 (* 0 x12)) (?v_24 (* 1 x13)) (?v_44 (* 0 x17)) (?v_10 (* 0 x2)) (?v_28 (* 0 x16)) (?v_16 (* 0 x25)) (?v_9 (* 0 x18)) (?v_37 (* 0 x29)) (?v_36 (* 1 x22)) (?v_91 (* 1 x28)) (?v_12 (* 0 x30)) (?v_71 (* 0 x31)) (?v_13 (* 0 x37)) (?v_40 (* 0 x39)) (?v_32 (* 0 x8)) (?v_33 (* 1 x34)) (?v_49 (* 1 x25)) (?v_110 (* 2 x26)) (?v_30 (* 0 x3)) (?v_111 (* 1 x33)) (?v_38 (* 0 x34)) (?v_85 (* 2 x35)) (?v_19 (* 0 x4)) (?v_20 (* 0 x6)) (?v_60 (* 1 x38)) (?v_79 (* 1 x5))) (let ((?v_102 (+ ?v_60 ?v_79)) (?v_61 (* 1 x0)) (?v_83 (* 0 x33)) (?v_95 (* 1 x18)) (?v_55 (* 1 x2)) (?v_65 (* 1 x27)) (?v_121 (* 1 x35)) (?v_42 (* 1 x9)) (?v_43 (* 1 x12)) (?v_100 (* 1 x31)) (?v_41 (* 0 x5)) (?v_53 (* 1 x17)) (?v_48 (* 0 x21)) (?v_50 (* 0 x27)) (?v_64 (* 0 x28)) (?v_68 (* 1 x30)) (?v_96 (* 1 x6)) (?v_78 (* 1 x15)) (?v_54 (* 0 x19)) (?v_69 (* 0 x22)) (?v_59 (* 2 x31)) (?v_92 (* 1 x32)) (?v_124 (* 1 x14)) (?v_86 (* 0 x10)) (?v_70 (* 1 x16)) (?v_108 (* 1 x26)) (?v_109 (* 1 x3)) (?v_80 (* 1 x1)) (?v_101 (* 1 x36)) (?v_72 (* 0 x9)) (?v_77 (* 0 x14)) (?v_90 (* 1 x23)) (?v_84 (* 1 x4)) (?v_130 (* 2 x34)) (?v_117 (* 0 x38)) (?v_104 (* 1 x19)) (?v_99 (* 1 x24)) (?v_128 (* 2 x17)) (?v_105 (* 0 x35)) (?v_114 (* 1 x20))) (let ((?v_125 (+ ?v_79 ?v_42)) (?v_131 (* 2 x4)) (?v_122 (+ ?v_84 ?v_79)) (?v_25 (* (- 2) x38)) (?v_1 (* (- 1) x14)) (?v_2 (* (- 1) x19)) (?v_35 (* (- 1) x25)) (?v_57 (* (- 1) x5)) (?v_4 (* (- 1) x3)) (?v_127 (* (- 2) x1)) (?v_115 (* (- 1) x21)) (?v_74 (* (- 1) x26)) (?v_29 (* (- 1) x27)) (?v_46 (* (- 1) x35)) (?v_39 (* (- 1) x38)) (?v_47 (* (- 1) x6)) (?v_52 (* (- 1) x11)) (?v_14 (* (- 1) x20)) (?v_63 (* (- 1) x32)) (?v_76 (* (- 1) x36)) (?v_58 (* (- 1) x7)) (?v_27 (* (- 1) x22)) (?v_34 (* (- 1) x16)) (?v_116 (* (- 1) x31)) (?v_88 (* (- 1) x39)) (?v_98 (* (- 1) x17)) (?v_45 (* (- 1) x18)) (?v_62 (* (- 1) x23)) (?v_89 (* (- 1) x9)) (?v_119 (* (- 2) x15)) (?v_103 (* (- 1) x28)) (?v_107 (* (- 1) x2)) (?v_112 (* (- 1) x24)) (?v_75 (* (- 1) x33)) (?v_94 (* (- 2) x11)) (?v_73 (* (- 1) x12)) (?v_118 (* (- 1) x13)) (?v_81 (* (- 1) x34)) (?v_82 (* (- 1) x37)) (?v_106 (* (- 1) x0)) (?v_97 (* (- 1) x1)) (?v_126 (* (- 1) x15)) (?v_113 (* (- 1) x8)) (?v_120 (* (- 1) x10)) (?v_123 (* (- 2) x27)) (?v_129 (* (- 1) x30))) (and (<= (+ ?v_0 (+ ?v_22 (+ ?v_5 (+ ?v_7 (+ ?v_23 (+ ?v_25 (+ ?v_1 (+ ?v_2 (+ ?v_35 (+ ?v_57 (+ ?v_8 (+ ?v_26 (+ ?v_3 (+ ?v_15 (+ ?v_17 (+ ?v_4 (+ ?v_18 (+ ?v_31 (+ ?v_93 (+ ?v_56 (+ ?v_11 (+ ?v_51 (+ ?v_66 (+ ?v_67 ?v_21)))))))))))))))))))))))) (- 1)) (<= (+ ?v_0 (+ ?v_127 (+ ?v_87 (+ ?v_6 (+ ?v_24 (+ ?v_1 (+ ?v_2 (+ ?v_44 (+ ?v_10 (+ ?v_115 (+ ?v_74 (+ ?v_28 (+ ?v_3 (+ ?v_16 (+ ?v_29 (+ ?v_4 (+ ?v_46 (+ ?v_39 (+ ?v_47 (+ ?v_9 (+ ?v_37 (+ ?v_36 (+ ?v_91 (+ ?v_12 (+ ?v_71 (+ ?v_13 (+ ?v_40 (+ ?v_32 ?v_33)))))))))))))))))))))))))))) 0) (<= (+ ?v_0 (+ ?v_5 (+ ?v_52 (+ ?v_6 (+ ?v_7 (+ ?v_1 (+ ?v_14 (+ ?v_63 (+ ?v_76 (+ ?v_58 (+ ?v_8 (+ ?v_27 (+ ?v_9 (+ ?v_10 (+ ?v_49 (+ ?v_110 (+ ?v_11 (+ ?v_30 (+ ?v_12 (+ ?v_111 (+ ?v_38 (+ ?v_85 (+ ?v_13 (+ ?v_19 (+ ?v_20 ?v_102))))))))))))))))))))))))) (- 1)) (<= (+ ?v_61 (+ ?v_5 (+ (* (- 2) x22) (+ (* (- 2) x7) (+ ?v_1 (+ ?v_34 (+ ?v_14 (+ ?v_116 (+ ?v_88 (+ ?v_3 (+ ?v_15 (+ ?v_16 (+ ?v_17 (+ ?v_18 (+ ?v_83 (+ ?v_13 (+ ?v_19 (+ ?v_20 (+ ?v_95 (+ ?v_55 (+ ?v_65 (+ ?v_21 (+ ?v_12 (+ ?v_121 (+ (* 3 x8) ?v_42))))))))))))))))))))))))) 1) (<= (+ ?v_0 (+ ?v_22 (+ ?v_5 (+ ?v_23 (+ ?v_43 (+ ?v_24 (+ ?v_25 (+ ?v_1 (+ ?v_8 (+ ?v_98 (+ ?v_10 (+ ?v_26 (+ ?v_27 (+ ?v_28 (+ ?v_3 (+ ?v_16 (+ ?v_29 (+ (* (- 1) x29) (+ ?v_30 (+ ?v_12 (+ ?v_100 (+ ?v_31 (+ ?v_41 (+ ?v_20 (+ ?v_32 (+ ?v_33 (* 2 x7))))))))))))))))))))))))))) 1) (<= (+ ?v_1 (+ ?v_8 (+ ?v_34 (+ ?v_53 (+ ?v_45 (+ ?v_26 (+ ?v_62 (+ ?v_35 (+ ?v_48 (+ ?v_15 (+ ?v_36 (+ ?v_50 (+ ?v_64 (+ ?v_37 (+ ?v_30 (+ ?v_38 (+ ?v_39 (+ ?v_40 (+ ?v_19 (+ ?v_41 (+ ?v_68 (+ ?v_96 ?v_42)))))))))))))))))))))) 0) (<= (+ ?v_43 (+ ?v_78 (+ (* (- 2) x23) (+ ?v_28 (+ ?v_44 (+ ?v_45 (+ ?v_46 (+ ?v_54 (+ ?v_10 (+ ?v_26 (+ ?v_47 (+ ?v_48 (+ ?v_69 (+ ?v_15 (+ ?v_49 (+ ?v_50 (+ ?v_59 (+ ?v_92 (+ ?v_38 (+ ?v_31 (+ ?v_51 (+ ?v_39 (+ ?v_89 (+ ?v_124 (* 2 x5))))))))))))))))))))))))) 0) (<= (+ ?v_22 (+ ?v_86 (+ ?v_52 (+ ?v_43 (+ ?v_24 (+ ?v_119 (+ ?v_70 (+ ?v_53 (+ ?v_45 (+ ?v_54 (+ ?v_55 (+ ?v_26 (+ ?v_56 (+ ?v_27 (+ ?v_108 (+ ?v_29 (+ ?v_103 (+ ?v_57 (+ ?v_58 (+ ?v_37 (+ ?v_109 (+ ?v_59 (+ ?v_38 (+ ?v_31 (+ ?v_13 (+ ?v_19 ?v_60)))))))))))))))))))))))))) 0) (<= (+ ?v_61 (+ ?v_80 (+ (* (- 2) x13) (+ ?v_52 (+ ?v_107 (+ ?v_8 (+ ?v_26 (+ ?v_62 (+ ?v_112 (+ ?v_63 (+ ?v_75 (+ ?v_58 (+ ?v_53 (+ ?v_48 (+ ?v_17 (+ ?v_64 (+ ?v_19 (+ ?v_20 (+ ?v_65 (+ ?v_11 (+ ?v_101 (+ ?v_51 (+ ?v_39 (+ ?v_66 (+ ?v_67 (+ ?v_72 ?v_68)))))))))))))))))))))))))) (- 1)) (<= (+ ?v_5 (+ ?v_94 (+ ?v_73 (+ ?v_118 (+ ?v_10 (+ ?v_81 (+ ?v_46 (+ ?v_47 (+ ?v_77 (+ ?v_53 (+ ?v_48 (+ ?v_69 (+ ?v_16 (+ ?v_17 (+ ?v_70 (+ ?v_90 (+ ?v_50 (+ ?v_71 (+ ?v_18 (+ ?v_31 (+ ?v_13 (+ (* 2 x33) (+ ?v_84 ?v_72))))))))))))))))))))))) 0) (<= (+ ?v_73 (+ ?v_22 (+ ?v_5 (+ ?v_74 (+ ?v_7 (+ ?v_23 (+ (* 2 x19) (+ ?v_75 (+ ?v_76 (+ ?v_82 (+ ?v_47 (+ ?v_77 (+ ?v_26 (+ ?v_78 (+ ?v_55 (+ ?v_48 (+ ?v_37 (+ ?v_12 (+ ?v_18 (+ ?v_40 (+ ?v_19 (+ ?v_79 (+ ?v_130 ?v_72))))))))))))))))))))))) 0) (<= (+ ?v_106 (+ ?v_80 (+ ?v_43 (+ ?v_74 (+ ?v_8 (+ ?v_81 (+ ?v_82 (+ ?v_47 (+ ?v_77 (+ ?v_28 (+ ?v_54 (+ ?v_10 (+ ?v_26 (+ ?v_18 (+ ?v_83 (+ ?v_56 (+ ?v_36 (+ ?v_84 (+ ?v_67 (+ (* 2 x27) (+ ?v_85 ?v_117))))))))))))))))))))) 1) (<= (+ ?v_61 (+ ?v_97 (+ ?v_86 (+ ?v_87 (+ ?v_6 (+ ?v_45 (+ ?v_27 (+ ?v_81 (+ ?v_39 (+ ?v_88 (+ ?v_89 (+ ?v_77 (+ ?v_8 (+ ?v_104 (+ ?v_17 (+ ?v_90 (+ ?v_99 (+ ?v_91 (+ ?v_11 (+ ?v_30 (+ ?v_92 (+ ?v_13 (+ ?v_20 (+ ?v_93 (+ ?v_128 (* 2 x30)))))))))))))))))))))))))) 0) (<= (+ ?v_61 (+ ?v_5 (+ ?v_94 (+ ?v_6 (+ ?v_126 (+ ?v_74 (+ ?v_88 (+ ?v_58 (+ ?v_113 (+ ?v_77 (+ ?v_44 (+ (* 2 x20) (+ ?v_15 (+ ?v_50 (+ ?v_64 (+ ?v_37 (+ ?v_71 (+ ?v_83 (+ ?v_105 (+ ?v_31 (+ ?v_41 (+ ?v_95 (+ ?v_60 ?v_96))))))))))))))))))))))) (- 1)) (<= (+ ?v_97 (+ ?v_120 (+ ?v_73 (+ ?v_87 (+ (* (- 2) x3) (+ ?v_98 (+ ?v_74 (+ ?v_75 (+ ?v_46 (+ (* (- 1) x4) (+ ?v_77 (+ ?v_8 (+ ?v_10 (+ ?v_48 (+ ?v_3 (+ ?v_93 (+ ?v_32 (+ ?v_95 (+ ?v_114 (+ ?v_36 (+ ?v_99 (+ ?v_100 (+ ?v_92 (+ ?v_101 ?v_102)))))))))))))))))))))))) 0) (<= (+ (* (- 2) x12) (+ ?v_22 (+ ?v_5 (+ ?v_23 (+ ?v_24 (+ ?v_29 (+ ?v_103 (+ ?v_77 (+ ?v_28 (+ ?v_44 (+ ?v_104 (+ ?v_55 (+ ?v_48 (+ ?v_18 (+ ?v_90 (+ ?v_11 (+ ?v_30 (+ ?v_38 (+ ?v_105 (+ ?v_13 (+ ?v_19 (+ ?v_20 (+ ?v_32 (+ ?v_36 (+ ?v_68 (+ ?v_101 ?v_125)))))))))))))))))))))))))) 0) (<= (+ ?v_106 (+ ?v_97 (+ ?v_86 (+ ?v_6 (+ ?v_107 (+ ?v_87 (+ ?v_8 (+ ?v_34 (+ ?v_47 (+ ?v_77 (+ ?v_9 (+ ?v_104 (+ ?v_26 (+ ?v_48 (+ ?v_16 (+ ?v_90 (+ ?v_108 (+ ?v_50 (+ ?v_71 (+ ?v_18 (+ ?v_41 (+ ?v_32 (+ ?v_109 (+ ?v_68 ?v_131)))))))))))))))))))))))) 0) (<= (+ ?v_106 (+ ?v_22 (+ ?v_87 (+ (* 2 x12) (+ ?v_54 (+ ?v_24 (+ ?v_98 (+ ?v_26 (+ ?v_103 (+ ?v_4 (+ ?v_47 (+ ?v_58 (+ ?v_77 (+ ?v_48 (+ ?v_17 (+ ?v_37 (+ ?v_71 (+ ?v_18 (+ ?v_13 (+ ?v_19 (+ ?v_41 (+ ?v_65 (+ ?v_68 (+ ?v_101 (+ ?v_60 ?v_67))))))))))))))))))))))))) 0) (<= (+ (* (- 3) x31) (+ ?v_97 (+ ?v_86 (+ ?v_43 (+ ?v_107 (+ ?v_87 (+ ?v_24 (+ ?v_62 (+ ?v_29 (+ ?v_63 (+ ?v_81 (+ ?v_77 (+ ?v_9 (+ ?v_15 (+ ?v_105 (+ ?v_13 (+ ?v_40 (+ ?v_93 (+ ?v_49 (+ ?v_110 (+ ?v_20 (+ ?v_91 (+ ?v_30 (+ ?v_111 ?v_122)))))))))))))))))))))))) 0) (<= (+ ?v_6 (+ ?v_2 (+ ?v_10 (+ ?v_23 (+ ?v_24 (+ ?v_112 (+ ?v_17 (+ ?v_88 (+ ?v_113 (+ ?v_70 (+ ?v_9 (+ ?v_114 (+ ?v_49 (+ ?v_50 (+ ?v_71 (+ ?v_13 (+ ?v_19 (+ ?v_93 (+ ?v_11 (+ ?v_20 (+ ?v_109 (+ (* 2 x32) (+ ?v_111 ?v_72))))))))))))))))))))))) (- 1)) (<= (+ ?v_61 (+ (* (- 3) x12) (+ ?v_22 (+ ?v_86 (+ ?v_94 (+ ?v_24 (+ ?v_115 (+ ?v_112 (+ ?v_29 (+ ?v_116 (+ ?v_75 (+ ?v_81 (+ ?v_113 (+ ?v_9 (+ ?v_104 (+ ?v_55 (+ ?v_26 (+ ?v_49 (+ ?v_108 (+ ?v_64 (+ ?v_37 (+ ?v_12 (+ ?v_13 (+ ?v_117 (+ ?v_93 (+ ?v_66 (+ ?v_84 (* 2 x6)))))))))))))))))))))))))))) 0) (<= (+ ?v_22 (+ ?v_86 (+ ?v_87 (+ ?v_6 (+ ?v_24 (+ (* (- 2) x17) (+ ?v_26 (+ ?v_62 (+ ?v_28 (+ ?v_48 (+ ?v_69 (+ ?v_17 (+ ?v_123 (+ ?v_9 (+ ?v_91 (+ (* 2 x3) (+ ?v_129 (+ ?v_63 (+ ?v_81 (+ ?v_46 (+ ?v_82 (+ ?v_31 (+ ?v_88 (+ ?v_19 (+ ?v_41 (+ ?v_20 ?v_42)))))))))))))))))))))))))) 1) (<= (+ ?v_80 (+ ?v_52 (+ ?v_6 (+ ?v_118 (+ ?v_119 (+ ?v_54 (+ ?v_10 (+ ?v_35 (+ ?v_114 (+ ?v_103 (+ ?v_75 (+ ?v_58 (+ ?v_44 (+ ?v_48 (+ ?v_3 (+ ?v_36 (+ ?v_99 (+ ?v_108 (+ ?v_50 (+ ?v_11 (+ ?v_12 (+ ?v_18 (+ ?v_105 (+ ?v_31 (+ ?v_51 (+ ?v_40 (+ ?v_19 ?v_32))))))))))))))))))))))))))) 0) (<= (+ ?v_106 (+ ?v_86 (+ ?v_74 (+ ?v_87 (+ ?v_54 (+ ?v_15 (+ ?v_16 (+ ?v_78 (+ ?v_103 (+ ?v_57 (+ ?v_58 (+ ?v_113 (+ ?v_48 (+ ?v_70 (+ ?v_53 (+ ?v_50 (+ ?v_71 (+ ?v_13 (+ (* 2 x29) (+ ?v_109 (+ ?v_33 (+ (* 3 x36) (+ ?v_66 ?v_42))))))))))))))))))))))) 1) (<= (+ ?v_61 (+ ?v_120 (+ ?v_87 (+ ?v_43 (+ ?v_10 (+ ?v_76 (+ ?v_28 (+ ?v_3 (+ ?v_16 (+ ?v_37 (+ ?v_30 (+ ?v_71 (+ ?v_18 (+ ?v_117 (+ ?v_20 (+ ?v_93 (+ ?v_95 (+ ?v_99 (+ ?v_65 (+ ?v_111 (+ ?v_121 ?v_122))))))))))))))))))))) 0) (<= (+ ?v_22 (+ ?v_94 (+ ?v_6 (+ ?v_107 (+ ?v_24 (+ ?v_78 (+ ?v_44 (+ ?v_114 (+ ?v_115 (+ ?v_4 (+ ?v_76 (+ ?v_69 (+ ?v_15 (+ ?v_71 (+ ?v_18 (+ ?v_13 (+ ?v_90 (+ ?v_108 (+ ?v_123 (+ ?v_39 (+ ?v_93 (+ ?v_124 (+ ?v_95 (+ ?v_12 ?v_125)))))))))))))))))))))))) (- 1)) (<= (+ (* 2 x10) (+ ?v_63 (+ ?v_75 (+ ?v_8 (+ ?v_26 (+ ?v_27 (+ ?v_3 (+ ?v_17 (+ ?v_37 (+ ?v_39 (+ ?v_40 (+ ?v_57 (+ ?v_20 (+ ?v_32 (+ ?v_72 (+ ?v_124 (+ ?v_53 (+ (* 2 x2) (+ ?v_56 (+ ?v_49 (+ ?v_65 (+ ?v_91 (+ ?v_109 (+ ?v_12 ?v_84)))))))))))))))))))))))) 1) (<= (+ ?v_22 (+ ?v_86 (+ ?v_6 (+ ?v_7 (+ ?v_126 (+ ?v_10 (+ ?v_62 (+ ?v_35 (+ ?v_15 (+ ?v_17 (+ ?v_4 (+ ?v_48 (+ ?v_124 (+ ?v_53 (+ ?v_36 (+ ?v_91 (+ ?v_11 (+ (* 2 x16) (+ ?v_12 (+ ?v_51 (+ ?v_117 (+ ?v_66 (+ ?v_96 (+ (* 1 x7) ?v_67)))))))))))))))))))))))) (- 1)) (<= (+ ?v_0 (+ ?v_6 (+ ?v_119 (+ ?v_98 (+ ?v_28 (+ ?v_45 (+ ?v_54 (+ ?v_55 (+ ?v_114 (+ ?v_62 (+ ?v_112 (+ ?v_4 (+ ?v_63 (+ ?v_75 (+ ?v_46 (+ ?v_48 (+ ?v_17 (+ ?v_49 (+ ?v_37 (+ ?v_100 (+ ?v_101 (+ ?v_117 (+ ?v_41 (+ ?v_72 (+ ?v_124 ?v_68))))))))))))))))))))))))) 0) (<= (+ ?v_127 (+ ?v_86 (+ ?v_6 (+ ?v_24 (+ ?v_8 (+ ?v_115 (+ ?v_112 (+ ?v_29 (+ ?v_47 (+ ?v_9 (+ ?v_69 (+ ?v_16 (+ ?v_30 (+ ?v_71 (+ ?v_105 (+ ?v_40 (+ ?v_72 (+ ?v_124 (+ ?v_104 (+ ?v_90 (+ ?v_91 (+ ?v_128 (+ ?v_129 (+ ?v_79 (+ ?v_130 ?v_131))))))))))))))))))))))))) (- 1)))))))
(check-sat)
(exit)
